c b=7,c=5
p cnf 17 154
1 4 5 7 -14 0
3 4 7 -16 0
1 4 5 -7 14 0
1 4 5 -7 16 0
3 4 6 -13 0
1 2 5 6 -15 0
3 4 -6 13 0
1 4 5 -6 15 0
2 3 5 -12 0
1 4 5 -17 0
3 4 -5 7 14 0
3 4 6 7 -15 0
3 4 -5 -7 -14 0
-5 6 -7 15 0
6 -7 16 0
6 -17 0
3 4 -6 7 15 0
7 -17 0
-5 -6 -7 -15 0
-5 -6 -7 17 0
3 4 -5 -6 -16 0
2 3 -5 12 0
1 2 4 -11 0
2 3 5 6 7 -14 0
5 7 -16 0
2 3 5 6 -7 14 0
2 3 -4 6 13 0
-4 5 -6 7 14 0
5 -6 7 15 0
-4 5 -6 -7 -14 0
1 2 -4 5 -7 -15 0
-4 -6 -7 17 0
2 3 -4 -6 -13 0
-4 5 -6 -16 0
2 3 -5 6 7 14 0
2 3 -4 -5 7 -15 0
6 7 -16 0
2 3 -5 6 -7 -14 0
-4 -5 -6 7 -14 0
-4 -5 -6 7 16 0
-4 -5 -6 -7 14 0
-4 -6 -7 -16 0
-4 -5 -6 -15 0
1 2 -4 11 0
1 3 -10 0
1 2 4 5 6 -13 0
1 2 4 5 -6 13 0
1 2 -3 5 12 0
4 -5 6 7 14 0
-3 4 -5 7 -15 0
4 -5 6 -7 -14 0
-3 4 -5 6 13 0
1 -3 4 -6 7 -14 0
-3 -5 -6 7 16 0
1 -3 4 -6 -7 14 0
-3 -5 -6 -7 -16 0
-3 4 -5 -6 -13 0
-3 -5 -6 -15 0
1 2 -3 -5 -12 0
1 2 -3 -4 6 7 -14 0
1 2 -3 -4 6 -7 14 0
1 2 -4 5 6 13 0
1 2 -4 5 -6 -13 0
-3 -4 -5 7 -14 0
-3 -4 -5 -7 14 0
-3 -4 -5 6 -13 0
-3 -4 -5 6 15 0
-3 -4 -5 -6 13 0
1 -3 10 0
2 -9 0
3 5 6 -15 0
1 3 4 5 -12 0
1 3 4 -5 12 0
1 -2 4 11 0
-2 3 -4 6 7 -14 0
-2 3 -4 6 -7 14 0
3 -4 5 6 13 0
3 -4 5 -7 -15 0
3 -4 5 -6 -13 0
-2 3 -4 5 12 0
-2 -4 -5 7 -14 0
-2 -4 -5 -7 14 0
-2 3 -5 6 -13 0
-2 -4 -5 6 15 0
-2 3 -5 -6 13 0
-2 3 -4 -5 -12 0
1 -2 -4 -11 0
1 -2 -3 5 6 -13 0
4 5 6 -15 0
1 -2 -3 5 -6 13 0
1 -3 4 5 12 0
1 -3 4 -5 -12 0
-2 -3 -4 5 7 14 0
5 6 7 -15 0
-2 -3 -4 5 -7 -14 0
-2 -3 -4 6 -7 15 0
-2 -3 -4 6 -13 0
-2 -3 -4 -6 -7 -15 0
-2 -3 -4 -6 13 0
-2 -3 -4 5 -12 0
-2 -3 -4 -5 12 0
-2 9 0
1 -8 0
2 4 5 7 -14 0
2 4 5 -7 14 0
2 4 5 -7 16 0
2 4 5 -6 15 0
2 4 5 -17 0
2 3 4 -11 0
2 3 -4 11 0
-1 3 10 0
-1 2 -3 5 6 -13 0
-1 2 -3 5 -6 13 0
2 -3 4 5 12 0
2 -3 4 -6 7 -14 0
2 -3 4 -6 -7 14 0
2 -3 4 -5 -12 0
-1 2 -3 4 11 0
-1 -3 -4 5 7 14 0
-1 -3 -4 5 -7 -14 0
-1 -3 -4 6 -7 15 0
-1 -3 -4 6 -13 0
-1 -3 -4 -6 -7 -15 0
-1 -3 -4 -6 13 0
-1 2 -4 5 -12 0
-1 2 -4 -5 12 0
-1 2 -3 -4 -11 0
-1 -3 -10 0
3 4 5 7 -14 0
3 4 5 -7 14 0
3 4 5 -7 16 0
3 4 5 -6 15 0
-1 -2 4 5 -12 0
3 4 5 -17 0
-1 -2 4 -5 12 0
-2 3 4 11 0
-2 3 -4 -11 0
4 5 6 7 -14 0
4 5 6 -7 14 0
-1 -2 -3 4 6 13 0
-1 -2 -3 5 -6 7 14 0
-1 -2 -3 5 -6 -7 -14 0
-1 -2 -3 4 5 -7 -15 0
-1 -2 -3 -6 -7 17 0
-1 -2 -3 4 -6 -13 0
-1 -2 -3 5 -6 -16 0
-1 -2 -3 5 -12 0
-1 -2 -3 -5 -6 7 -14 0
-1 -2 -3 -5 -6 -7 14 0
-1 -2 -3 -6 -7 -16 0
-1 -2 -3 -5 12 0
-1 -2 -3 4 -11 0
-1 -2 -3 -4 11 0
-1 8 0
